# http://www.survo.fi/puzzles/280708.txt, third puzzle
# Survo puzzle 128/2008 (1700) #364-35846
#
#    A  B  C  D  E  F
# 1  *  *  *  *  *  * 30
# 2  *  * 18  *  *  * 86
# 3  *  *  *  *  *  * 55
#   22 11 42 32 27 37
# 
param r := 3;
param c := 6;

param rowsums :=
   1 30
   2 86
   3 55
;

param colsums :=
   1 22
   2 11
   3 42
   4 32
   5 27
   6 37
;

param matrix: 1 2 3 4 5 6:=
   1  0 0  0 0 0 0
   2  0 0 18 0 0 0
   3  0 0  0 0 0 0
;
